c 123_3_checker.cnf
c
c field = 123
c formula set type = 3_checker
c
p cnf 4 46
240 
242 
246 
-248 
241 
243 
247 
-249 
242 
246 
248 
-240 
243 
247 
249 
-241 
242 
246 
248 
-250 
243 
247 
249 
-251 
246 
248 
250 
-242 
247 
249 
251 
-243 
246 
248 
250 
-252 
247 
249 
251 
-253 
154 
184 
214 
-124 
155 
185 
215 
-125 
154 
184 
214 
-274 
155 
185 
215 
-275 
184 
214 
274 
-154 
185 
215 
275 
-155 
184 
214 
274 
-304 
185 
215 
275 
-305 
214 
274 
304 
-184 
215 
275 
305 
-185 
214 
274 
304 
-334 
215 
275 
305 
-335 
274 
304 
334 
-214 
275 
305 
335 
-215 
274 
304 
334 
-364 
275 
305 
335 
-365 
180 
212 
276 
-308 
181 
213 
277 
-309 
212 
276 
308 
-180 
213 
277 
309 
-181 
212 
276 
308 
-340 
213 
277 
309 
-341 
276 
308 
340 
-212 
277 
309 
341 
-213 
276 
308 
340 
-372 
277 
309 
341 
-373 
160 
188 
216 
-132 
161 
189 
217 
-133 
160 
188 
216 
-272 
161 
189 
217 
-273 
188 
216 
272 
-160 
189 
217 
273 
-161 
188 
216 
272 
-300 
189 
217 
273 
-301 
216 
272 
300 
-188 
217 
273 
301 
-189 
